
Gurobi 11.0.2 (linux64) logging started Tue 03 Dec 2024 09:03:01 AM CET

Set parameter LogFile to value "./res/knapPI_11_50_1000/knapPI_11_50_1000_6/grb_dom.log"
Set parameter Presolve to value 0
Set parameter Aggregate to value 0
Set parameter Heuristics to value 0
Set parameter LPWarmStart to value 0
Set parameter NLPHeur to value 0
Set parameter PreDepRow to value 0
Set parameter PreDual to value 0
Set parameter RINS to value 0
Set parameter Symmetry to value 0
Set parameter NodeLimit to value 1
Set parameter Threads to value 1

Gurobi 11.0.2 (linux64) logging started Tue 03 Dec 2024 09:03:08 AM CET

Set parameter LogFile to value "./res/knapPI_11_50_1000/knapPI_11_50_1000_6/grb_dom.log"
Set parameter NLPHeur to value 0
Set parameter LPWarmStart to value 0
Set parameter PreDepRow to value 0
Set parameter Symmetry to value 0
Set parameter Presolve to value 0
Gurobi Optimizer version 11.0.2 build v11.0.2rc0 (linux64 - "Pop!_OS 20.04 LTS")

CPU model: Intel(R) Core(TM) i7-8650U CPU @ 1.90GHz, instruction set [SSE2|AVX|AVX2]
Thread count: 4 physical cores, 4 logical processors, using up to 1 threads

Optimize a model with 38961 rows, 50 columns and 1768067 nonzeros
Model fingerprint: 0x5b9855d8
Variable types: 0 continuous, 50 integer (50 binary)
Coefficient statistics:
  Matrix range     [1e+00, 1e+03]
  Objective range  [1e+02, 2e+03]
  Bounds range     [0e+00, 0e+00]
  RHS range        [2e+03, 2e+03]
Variable types: 0 continuous, 50 integer (50 binary)

Root relaxation: objective 2.363347e+03, 6 iterations, 0.45 seconds (0.05 work units)

    Nodes    |    Current Node    |     Objective Bounds      |     Work
 Expl Unexpl |  Obj  Depth IntInf | Incumbent    BestBd   Gap | It/Node Time

     0     0 2363.34694    0    2          - 2363.34694      -     -    1s
     0     0 2363.34694    0    2          - 2363.34694      -     -    3s
     0     0 2363.34694    0    1          - 2363.34694      -     -    3s
     0     0 2363.34694    0    1          - 2363.34694      -     -    4s
     0     0 2363.34694    0    5          - 2363.34694      -     -    5s
     0     0 2363.34694    0    3          - 2363.34694      -     -    5s
     0     0 2363.34694    0    3          - 2363.34694      -     -    6s
     0     2 2363.34694    0    3          - 2363.34694      -     -    7s

Cutting planes:
  Cover: 2
  Clique: 1
  MIR: 1
  StrongCG: 1
  RLT: 1

Explored 1 nodes (18 simplex iterations) in 7.23 seconds (3.44 work units)
Thread count was 1 (of 4 available processors)

Solution count 0

Node limit reached
Best objective -, best bound 2.363000000000e+03, gap -

User-callback calls 1216, time in user-callback 0.00 sec
opt = false
obj = 2363.3469
nb_dom_cuts = 38960
solved_time = 7.2329
opt_val = 2358.0
